p edge 110 1265 92
e 36 107
e 36 41
e 36 14
e 36 96
e 36 76
e 36 43
e 36 55
e 36 25
e 36 9
e 36 54
e 36 67
e 36 57
e 36 1
e 36 104
e 36 81
e 36 7
e 36 18
e 36 103
e 36 35
e 36 15
e 36 62
e 36 39
e 36 94
e 107 34
e 107 70
e 107 110
e 107 51
e 107 54
e 107 31
e 107 45
e 107 26
e 107 29
e 107 13
e 107 46
e 107 76
e 107 79
e 107 97
e 107 11
e 107 44
e 107 28
e 107 61
e 107 91
e 107 42
e 107 94
e 107 92
e 29 68
e 29 81
e 29 4
e 29 18
e 29 103
e 29 70
e 29 83
e 29 50
e 29 105
e 29 59
e 29 72
e 29 15
e 29 41
e 29 14
e 29 30
e 29 32
e 29 87
e 29 54
e 29 99
e 29 66
e 29 56
e 29 101
e 68 46
e 68 105
e 68 49
e 68 72
e 68 14
e 68 47
e 68 84
e 68 24
e 68 11
e 68 76
e 68 9
e 68 3
e 68 1
e 68 89
e 68 64
e 68 7
e 68 21
e 68 91
e 68 104
e 68 12
e 68 103
e 68 48
e 9 10
e 9 85
e 9 98
e 9 32
e 9 12
e 9 100
e 9 77
e 9 90
e 9 67
e 9 57
e 9 3
e 9 23
e 9 13
e 9 101
e 9 81
e 9 83
e 9 50
e 9 105
e 9 72
e 9 19
e 9 73
e 10 90
e 10 57
e 10 3
e 10 17
e 10 102
e 10 92
e 10 26
e 10 39
e 10 28
e 10 41
e 10 96
e 10 73
e 10 63
e 10 42
e 10 22
e 10 97
e 10 100
e 10 77
e 10 67
e 10 5
e 10 8
e 10 88
e 42 43
e 42 22
e 42 25
e 42 39
e 42 65
e 42 54
e 42 1
e 42 56
e 42 46
e 42 59
e 42 18
e 42 35
e 42 80
e 42 93
e 42 2
e 42 16
e 42 62
e 42 52
e 42 51
e 42 96
e 42 63
e 43 45
e 43 81
e 43 80
e 43 93
e 43 60
e 43 23
e 43 4
e 43 92
e 43 59
e 43 72
e 43 49
e 43 51
e 43 83
e 43 96
e 43 108
e 43 52
e 43 33
e 43 14
e 43 44
e 43 46
e 43 39
e 74 75
e 74 88
e 74 20
e 74 50
e 74 53
e 74 64
e 74 87
e 74 100
e 74 40
e 74 51
e 74 79
e 74 26
e 74 81
e 74 2
e 74 103
e 74 82
e 74 38
e 74 94
e 74 11
e 74 25
e 74 28
e 74 58
e 74 61
e 75 25
e 75 28
e 75 58
e 75 72
e 75 87
e 75 3
e 75 89
e 75 102
e 75 79
e 75 18
e 75 54
e 75 35
e 75 48
e 75 106
e 75 13
e 75 46
e 75 105
e 75 95
e 75 33
e 75 85
e 75 11
e 75 44
e 7 85
e 7 52
e 7 94
e 7 84
e 7 18
e 7 96
e 7 1
e 7 63
e 7 66
e 7 88
e 7 78
e 7 47
e 7 14
e 7 13
e 7 26
e 7 101
e 7 91
e 7 104
e 7 93
e 7 60
e 7 40
e 85 37
e 85 84
e 85 94
e 85 20
e 85 1
e 85 64
e 85 18
e 85 51
e 85 109
e 85 99
e 85 28
e 85 58
e 85 30
e 85 72
e 85 89
e 85 78
e 85 24
e 85 101
e 85 41
e 85 83
e 4 16
e 4 84
e 4 51
e 4 28
e 4 41
e 4 31
e 4 8
e 4 106
e 4 2
e 4 86
e 4 30
e 4 108
e 4 88
e 4 77
e 4 54
e 4 99
e 4 69
e 4 5
e 4 80
e 4 92
e 4 82
e 16 101
e 16 58
e 16 93
e 16 83
e 16 60
e 16 27
e 16 92
e 16 72
e 16 52
e 16 61
e 16 41
e 16 106
e 16 108
e 16 32
e 16 45
e 16 22
e 16 100
e 16 44
e 16 3
e 16 79
e 16 46
e 14 66
e 14 15
e 14 103
e 14 93
e 14 17
e 14 105
e 14 82
e 14 104
e 14 6
e 14 94
e 14 71
e 14 84
e 14 51
e 14 63
e 14 53
e 14 65
e 14 54
e 14 24
e 66 79
e 66 69
e 66 81
e 66 53
e 66 25
e 66 103
e 66 56
e 66 93
e 66 73
e 66 82
e 66 3
e 66 2
e 66 87
e 66 52
e 66 33
e 66 63
e 66 15
e 66 13
e 66 77
e 66 80
e 24 110
e 24 54
e 24 22
e 24 78
e 24 58
e 24 35
e 24 83
e 24 92
e 24 72
e 24 49
e 24 51
e 24 31
e 24 106
e 24 63
e 24 40
e 24 76
e 24 98
e 24 52
e 24 55
e 24 32
e 110 11
e 110 44
e 110 28
e 110 3
e 110 17
e 110 20
e 110 23
e 110 86
e 110 67
e 110 18
e 110 21
e 110 73
e 110 54
e 110 84
e 110 12
e 110 2
e 110 13
e 110 63
e 110 47
e 110 80
e 110 97
e 25 45
e 25 99
e 25 33
e 25 46
e 25 101
e 25 71
e 25 50
e 25 59
e 25 72
e 25 39
e 25 6
e 25 20
e 25 94
e 25 23
e 25 61
e 25 64
e 25 21
e 25 53
e 37 49
e 37 39
e 37 31
e 37 26
e 37 41
e 37 13
e 37 106
e 37 76
e 37 30
e 37 55
e 37 87
e 37 22
e 37 79
e 37 69
e 37 46
e 37 19
e 37 91
e 37 71
e 37 103
e 37 80
e 37 40
e 37 95
e 49 93
e 49 15
e 49 82
e 49 62
e 49 94
e 49 84
e 49 97
e 49 53
e 49 41
e 49 28
e 49 108
e 49 39
e 49 77
e 49 57
e 49 6
e 49 17
e 49 23
e 49 92
e 49 34
e 56 62
e 56 84
e 56 38
e 56 11
e 56 41
e 56 28
e 56 50
e 56 23
e 56 89
e 56 79
e 56 92
e 56 59
e 56 40
e 56 81
e 56 71
e 56 31
e 56 93
e 56 73
e 56 82
e 56 30
e 62 91
e 62 21
e 62 93
e 62 70
e 62 12
e 62 45
e 62 48
e 62 2
e 62 96
e 62 73
e 62 86
e 62 63
e 62 108
e 62 22
e 62 55
e 62 28
e 62 39
e 62 102
e 62 20
e 8 22
e 8 87
e 8 64
e 8 77
e 8 67
e 8 34
e 8 89
e 8 46
e 8 13
e 8 78
e 8 45
e 8 35
e 8 38
e 8 93
e 8 2
e 8 27
e 8 104
e 8 94
e 8 61
e 8 53
e 8 32
e 22 32
e 22 87
e 22 64
e 22 44
e 22 34
e 22 79
e 22 58
e 22 80
e 22 27
e 22 2
e 22 13
e 22 38
e 22 41
e 22 106
e 22 63
e 22 40
e 58 108
e 58 2
e 58 32
e 58 67
e 58 91
e 58 82
e 58 95
e 58 72
e 58 20
e 58 1
e 58 34
e 58 94
e 58 18
e 58 51
e 58 106
e 58 109
e 58 15
e 108 61
e 108 104
e 108 1
e 108 53
e 108 40
e 108 70
e 108 103
e 108 45
e 108 46
e 108 33
e 108 80
e 108 97
e 108 5
e 108 38
e 108 71
e 108 44
e 108 55
e 81 46
e 81 60
e 81 103
e 81 47
e 81 41
e 81 44
e 81 77
e 81 28
e 81 109
e 81 6
e 81 20
e 81 50
e 81 100
e 81 70
e 81 21
e 81 102
e 70 82
e 70 95
e 70 48
e 70 94
e 70 2
e 70 87
e 70 46
e 70 99
e 70 57
e 70 11
e 70 44
e 70 100
e 70 77
e 70 79
e 70 19
e 70 40
e 70 51
e 70 35
e 82 92
e 82 13
e 82 30
e 82 95
e 82 47
e 82 78
e 82 27
e 82 44
e 82 98
e 82 88
e 82 3
e 82 17
e 82 20
e 82 1
e 82 18
e 6 97
e 6 73
e 6 109
e 6 86
e 6 33
e 6 78
e 6 45
e 6 87
e 6 77
e 6 54
e 6 21
e 6 57
e 6 79
e 6 69
e 6 5
e 6 15
e 6 3
e 6 19
e 6 94
e 97 38
e 97 69
e 97 73
e 97 84
e 97 101
e 97 48
e 97 106
e 97 2
e 97 95
e 97 79
e 97 105
e 97 33
e 97 26
e 97 90
e 97 99
e 97 28
e 97 59
e 93 102
e 93 31
e 93 15
e 93 26
e 93 47
e 93 105
e 93 11
e 93 94
e 93 109
e 93 59
e 93 86
e 93 18
e 93 21
e 102 47
e 102 99
e 102 26
e 102 27
e 102 38
e 102 41
e 102 94
e 102 78
e 102 5
e 102 69
e 102 20
e 102 50
e 102 31
e 102 45
e 102 17
e 102 65
e 102 95
e 102 79
e 11 32
e 11 90
e 11 59
e 11 13
e 11 80
e 11 40
e 11 17
e 11 95
e 11 19
e 11 94
e 11 64
e 11 31
e 11 96
e 11 30
e 11 98
e 32 48
e 32 105
e 32 72
e 32 17
e 32 23
e 32 61
e 32 64
e 32 86
e 32 53
e 32 31
e 32 12
e 32 69
e 32 5
e 32 27
e 32 101
e 92 33
e 92 63
e 92 60
e 92 61
e 92 5
e 92 57
e 92 69
e 92 23
e 92 83
e 92 86
e 92 84
e 92 19
e 92 64
e 92 65
e 88 98
e 88 77
e 88 78
e 88 19
e 88 50
e 88 53
e 88 64
e 88 18
e 88 21
e 88 91
e 88 12
e 88 48
e 88 105
e 88 65
e 88 79
e 88 60
e 88 96
e 88 57
e 15 38
e 15 17
e 15 105
e 15 59
e 15 72
e 15 104
e 15 51
e 15 5
e 15 109
e 15 86
e 15 65
e 15 78
e 15 54
e 15 90
e 15 79
e 38 17
e 38 30
e 38 33
e 38 78
e 38 48
e 38 90
e 38 80
e 38 59
e 38 106
e 38 83
e 38 63
e 38 40
e 38 76
e 38 65
e 38 55
e 33 46
e 33 91
e 33 73
e 33 19
e 33 17
e 33 20
e 33 1
e 33 2
e 33 96
e 33 76
e 33 65
e 33 26
e 33 34
e 33 47
e 17 84
e 17 61
e 17 51
e 17 31
e 17 2
e 17 109
e 17 91
e 17 45
e 17 35
e 17 90
e 17 95
e 17 72
e 84 105
e 84 54
e 84 98
e 84 65
e 84 30
e 84 60
e 84 47
e 84 57
e 84 91
e 84 61
e 84 104
e 84 103
e 95 35
e 95 87
e 95 31
e 95 12
e 95 106
e 95 105
e 95 52
e 95 26
e 95 27
e 95 59
e 95 69
e 95 23
e 95 83
e 95 34
e 91 13
e 91 90
e 91 77
e 91 104
e 91 59
e 91 69
e 91 20
e 91 64
e 91 18
e 91 21
e 91 73
e 91 35
e 91 96
e 40 72
e 40 96
e 40 35
e 40 98
e 40 31
e 40 27
e 40 77
e 40 30
e 40 89
e 40 69
e 40 101
e 40 50
e 40 39
e 72 98
e 72 12
e 72 100
e 72 26
e 72 48
e 72 41
e 72 71
e 72 3
e 72 23
e 63 19
e 63 71
e 63 50
e 63 53
e 63 18
e 63 51
e 63 54
e 63 31
e 63 26
e 63 109
e 63 98
e 63 44
e 13 48
e 13 83
e 13 105
e 13 31
e 13 73
e 13 86
e 13 3
e 13 76
e 13 55
e 13 34
e 13 99
e 61 98
e 61 23
e 61 89
e 61 2
e 61 94
e 61 71
e 61 60
e 61 83
e 61 44
e 61 28
e 61 39
e 61 19
e 61 76
e 39 52
e 39 55
e 39 77
e 39 12
e 39 26
e 39 69
e 39 78
e 39 90
e 39 47
e 39 27
e 39 28
e 39 51
e 39 106
e 101 30
e 101 57
e 101 90
e 101 41
e 101 44
e 101 55
e 101 109
e 101 28
e 101 34
e 101 52
e 101 54
e 101 87
e 101 99
e 101 103
e 28 78
e 28 45
e 28 104
e 28 50
e 28 23
e 28 99
e 28 30
e 28 19
e 52 21
e 52 104
e 52 71
e 52 19
e 52 3
e 52 73
e 52 48
e 52 76
e 52 55
e 52 77
e 52 67
e 52 57
e 52 5
e 52 79
e 103 105
e 103 12
e 103 65
e 103 79
e 103 47
e 103 80
e 103 90
e 103 3
e 103 34
e 103 64
e 103 86
e 103 21
e 105 12
e 105 45
e 105 2
e 105 98
e 105 55
e 105 78
e 105 23
e 105 64
e 105 106
e 98 59
e 98 89
e 98 1
e 98 53
e 98 34
e 98 64
e 98 54
e 98 12
e 98 26
e 98 76
e 98 30
e 98 90
e 12 3
e 12 41
e 12 18
e 12 86
e 12 53
e 12 65
e 12 55
e 12 44
e 12 109
e 12 89
e 12 69
e 46 48
e 46 51
e 46 19
e 46 109
e 46 86
e 46 1
e 46 35
e 46 55
e 46 67
e 46 89
e 44 55
e 44 90
e 44 19
e 44 71
e 44 83
e 44 60
e 44 64
e 44 96
e 44 99
e 55 87
e 55 57
e 55 89
e 55 18
e 55 71
e 55 21
e 55 45
e 55 47
e 55 27
e 2 71
e 2 83
e 2 19
e 2 18
e 2 86
e 2 45
e 2 57
e 2 79
e 79 83
e 79 71
e 79 50
e 79 23
e 79 96
e 79 100
e 77 41
e 77 100
e 77 3
e 77 104
e 77 20
e 77 34
e 77 67
e 77 60
e 77 96
e 47 31
e 47 69
e 47 59
e 47 27
e 47 71
e 47 48
e 47 5
e 47 106
e 47 53
e 47 90
e 47 67
e 31 60
e 31 87
e 31 54
e 31 90
e 31 67
e 31 59
e 31 35
e 31 48
e 54 96
e 54 3
e 54 53
e 54 80
e 54 89
e 54 59
e 54 60
e 57 87
e 57 19
e 57 5
e 57 83
e 57 20
e 57 60
e 57 34
e 57 21
e 57 64
e 57 109
e 87 71
e 87 3
e 87 23
e 87 34
e 87 51
e 87 35
e 87 100
e 87 48
e 87 78
e 51 20
e 51 94
e 51 106
e 51 45
e 51 99
e 51 41
e 51 80
e 23 94
e 23 76
e 23 30
e 23 100
e 23 3
e 23 21
e 23 35
e 23 50
e 94 67
e 94 100
e 94 76
e 94 59
e 94 96
e 71 34
e 71 65
e 71 18
e 71 60
e 71 104
e 71 50
e 71 106
e 71 96
e 69 106
e 69 86
e 69 20
e 69 50
e 69 1
e 69 53
e 69 21
e 69 73
e 69 65
e 45 80
e 45 65
e 45 1
e 45 90
e 45 67
e 45 99
e 45 89
e 45 78
e 64 104
e 64 109
e 64 3
e 64 100
e 64 18
e 64 60
e 64 41
e 104 18
e 104 80
e 104 41
e 104 109
e 104 60
e 104 5
e 104 83
e 104 67
e 104 21
e 21 5
e 21 30
e 21 99
e 21 35
e 21 48
e 21 60
e 21 27
e 41 35
e 41 80
e 41 27
e 41 86
e 18 1
e 18 20
e 18 80
e 18 83
e 99 27
e 99 86
e 99 73
e 99 106
e 99 34
e 99 67
e 99 96
e 99 109
e 99 90
e 78 90
e 78 53
e 78 89
e 78 19
e 78 48
e 78 1
e 78 35
e 78 96
e 19 109
e 19 1
e 19 67
e 19 34
e 19 80
e 19 27
e 109 50
e 109 53
e 109 86
e 109 48
e 109 96
e 109 26
e 109 27
e 20 86
e 20 76
e 20 100
e 20 67
e 20 34
e 20 5
e 20 59
e 48 83
e 48 60
e 48 106
e 48 100
e 48 89
e 5 67
e 5 34
e 5 1
e 5 90
e 5 27
e 5 3
e 5 73
e 5 86
e 5 65
e 67 73
e 67 76
e 67 89
e 67 65
e 67 80
e 35 30
e 35 96
e 35 76
e 35 89
e 35 1
e 35 80
e 50 73
e 50 86
e 50 76
e 50 100
e 50 90
e 50 89
e 50 34
e 60 27
e 60 106
e 60 3
e 60 100
e 60 53
e 30 83
e 30 59
e 30 26
e 30 73
e 30 76
e 30 65
e 30 34
e 34 90
e 34 26
e 80 86
e 80 1
e 80 100
e 65 59
e 65 106
e 65 86
e 65 26
e 65 100
e 65 27
e 59 26
e 59 89
e 59 106
e 53 1
e 53 76
e 53 100
e 53 27
e 53 83
e 26 83
e 26 73
e 26 100
e 26 3
e 1 73
e 1 86
e 1 90
e 90 89
e 96 83
e 96 27
e 27 89
e 27 76
e 73 76
e 73 100
e 73 89
e 100 3
e 106 83
e 106 76
e 89 76
